; PUSH cw_1 SWAP1 CALLVALUE SWAP1 DUP3 DUP2 => CALLVALUE DUP2 PUSH cw_1 DUP1 SWAP4
(set-option :produce-proofs true)
; 
(set-info :status unknown)
(declare-fun storage_t ((_ BitVec 256) (_ BitVec 256) (_ BitVec 256) Int (_ BitVec 256)) (_ BitVec 256))
(declare-fun w_1 () (_ BitVec 256))
(declare-fun storage_s ((_ BitVec 256) (_ BitVec 256) (_ BitVec 256) Int (_ BitVec 256)) (_ BitVec 256))
(declare-fun exc_halt_t (Int) Bool)
(declare-fun exc_halt_s (Int) Bool)
(declare-fun stack_t ((_ BitVec 256) (_ BitVec 256) (_ BitVec 256) Int (_ BitVec 6)) (_ BitVec 256))
(declare-fun stack_s ((_ BitVec 256) (_ BitVec 256) (_ BitVec 256) Int (_ BitVec 6)) (_ BitVec 256))
(declare-fun sc_t (Int) (_ BitVec 6))
(declare-fun sc_s (Int) (_ BitVec 6))
(declare-fun used_gas_t ((_ BitVec 256) (_ BitVec 256) (_ BitVec 256) Int) Int)
(declare-fun used_gas_s ((_ BitVec 256) (_ BitVec 256) (_ BitVec 256) Int) Int)
(assert
 (exists ((x_0 (_ BitVec 256)) (x_CALLVALUE (_ BitVec 256)) )(let (($x11303 (forall ((w (_ BitVec 256)) )(let ((?x9324 (storage_t x_0 w_1 x_CALLVALUE 5 w)))
 (let ((?x3936 (storage_s x_0 w_1 x_CALLVALUE 6 w)))
 (= ?x3936 ?x9324))))
 ))
 (let (($x1885 (exc_halt_t 5)))
 (let (($x772 (exc_halt_s 6)))
 (let (($x11108 (= $x772 $x1885)))
 (let (($x2151 (forall ((n (_ BitVec 6)) )(let ((?x7848 (stack_t x_0 w_1 x_CALLVALUE 5 n)))
 (let ((?x886 (stack_s x_0 w_1 x_CALLVALUE 6 n)))
 (let (($x3101 (= ?x886 ?x7848)))
 (or (bvsle (sc_t 5) n) $x3101)))))
 ))
 (let ((?x8961 (sc_t 5)))
 (let ((?x926 (sc_s 6)))
 (let (($x5889 (= ?x926 ?x8961)))
 (let ((?x7709 (used_gas_t x_0 w_1 x_CALLVALUE 0)))
 (let ((?x9304 (used_gas_s x_0 w_1 x_CALLVALUE 0)))
 (let (($x3285 (= ?x9304 ?x7709)))
 (let (($x6823 (forall ((w (_ BitVec 256)) )(let ((?x9125 (storage_t x_0 w_1 x_CALLVALUE 0 w)))
 (let ((?x3334 (storage_s x_0 w_1 x_CALLVALUE 0 w)))
 (= ?x3334 ?x9125))))
 ))
 (let (($x56 (exc_halt_t 0)))
 (let (($x57 (exc_halt_s 0)))
 (let (($x58 (= $x57 $x56)))
 (let (($x1049 (forall ((n (_ BitVec 6)) )(let ((?x63 (sc_t 0)))
 (let (($x5904 (bvsle ?x63 n)))
 (let ((?x2643 (stack_t x_0 w_1 x_CALLVALUE 0 n)))
 (let ((?x9596 (stack_s x_0 w_1 x_CALLVALUE 0 n)))
 (let (($x2693 (= ?x9596 ?x2643)))
 (or $x2693 $x5904)))))))
 ))
 (let ((?x63 (sc_t 0)))
 (let ((?x72 (sc_s 0)))
 (let (($x73 (= ?x72 ?x63)))
 (let (($x2353 (= $x1885 (or (exc_halt_t 4) (not (bvsle (_ bv0 6) (bvadd (_ bv59 6) (sc_t 4))))))))
 (let (($x4490 (forall ((w (_ BitVec 256)) )(let ((?x152 (storage_t x_0 w_1 x_CALLVALUE 4 w)))
 (let ((?x9324 (storage_t x_0 w_1 x_CALLVALUE 5 w)))
 (= ?x9324 ?x152))))
 ))
 (let (($x9801 (forall ((n (_ BitVec 6)) )(let ((?x6111 (stack_t x_0 w_1 x_CALLVALUE 4 n)))
 (let ((?x7848 (stack_t x_0 w_1 x_CALLVALUE 5 n)))
 (or (= ?x7848 ?x6111) (bvsle (bvadd (_ bv59 6) (sc_t 4)) n)))))
 ))
 (let (($x3951 (= (used_gas_t x_0 w_1 x_CALLVALUE 5) (+ 3 (used_gas_t x_0 w_1 x_CALLVALUE 4)))))
 (let (($x7371 (= (stack_t x_0 w_1 x_CALLVALUE 5 (bvadd (_ bv62 6) ?x8961)) (stack_t x_0 w_1 x_CALLVALUE 4 (bvadd (_ bv62 6) (sc_t 4))))))
 (let (($x7360 (= (stack_t x_0 w_1 x_CALLVALUE 5 (bvadd (_ bv61 6) ?x8961)) (stack_t x_0 w_1 x_CALLVALUE 4 (bvadd (_ bv61 6) (sc_t 4))))))
 (let (($x5358 (= (stack_t x_0 w_1 x_CALLVALUE 5 (bvadd (_ bv60 6) ?x8961)) (stack_t x_0 w_1 x_CALLVALUE 4 (bvadd (_ bv60 6) (sc_t 4))))))
 (let ((?x1366 (sc_t 4)))
 (let ((?x5000 (bvadd (_ bv63 6) ?x1366)))
 (let ((?x10586 (stack_t x_0 w_1 x_CALLVALUE 4 ?x5000)))
 (let (($x10515 (= (stack_t x_0 w_1 x_CALLVALUE 5 (bvadd (_ bv63 6) ?x8961)) (stack_t x_0 w_1 x_CALLVALUE 4 (bvadd (_ bv59 6) ?x1366)))))
 (let (($x4203 (not (bvsle (_ bv0 6) (bvadd (_ bv63 6) (sc_t 3))))))
 (let (($x4112 (exc_halt_t 3)))
 (let (($x3425 (not (= ((_ extract 6 6) (bvadd (_ bv1 7) (concat (_ bv0 1) (sc_t 3)))) (_ bv0 1)))))
 (let (($x7854 (exc_halt_t 4)))
 (let (($x10452 (forall ((w (_ BitVec 256)) )(let ((?x5819 (storage_t x_0 w_1 x_CALLVALUE 3 w)))
 (let ((?x152 (storage_t x_0 w_1 x_CALLVALUE 4 w)))
 (= ?x152 ?x5819))))
 ))
 (let (($x5990 (forall ((n (_ BitVec 6)) )(let ((?x11964 (sc_t 3)))
 (let ((?x2640 (bvadd (_ bv63 6) ?x11964)))
 (let (($x10309 (bvsle ?x2640 n)))
 (let ((?x8876 (stack_t x_0 w_1 x_CALLVALUE 3 n)))
 (let ((?x6111 (stack_t x_0 w_1 x_CALLVALUE 4 n)))
 (or (= ?x6111 ?x8876) $x10309)))))))
 ))
 (let (($x7844 (= ?x1366 (bvadd (_ bv1 6) (sc_t 3)))))
 (let ((?x7262 (used_gas_t x_0 w_1 x_CALLVALUE 4)))
 (let ((?x11964 (sc_t 3)))
 (let ((?x2640 (bvadd (_ bv63 6) ?x11964)))
 (let ((?x10733 (stack_t x_0 w_1 x_CALLVALUE 3 ?x2640)))
 (let (($x9580 (exc_halt_t 2)))
 (let (($x6774 (or $x9580 (not (= ((_ extract 6 6) (bvadd (_ bv1 7) (concat (_ bv0 1) (sc_t 2)))) (_ bv0 1))))))
 (let (($x6697 (= $x4112 $x6774)))
 (let (($x6180 (forall ((w (_ BitVec 256)) )(let ((?x6052 (storage_t x_0 w_1 x_CALLVALUE 2 w)))
 (let ((?x5819 (storage_t x_0 w_1 x_CALLVALUE 3 w)))
 (= ?x5819 ?x6052))))
 ))
 (let (($x7047 (forall ((n (_ BitVec 6)) )(let ((?x10596 (stack_t x_0 w_1 x_CALLVALUE 2 n)))
 (let ((?x8876 (stack_t x_0 w_1 x_CALLVALUE 3 n)))
 (let (($x2921 (= ?x8876 ?x10596)))
 (let ((?x2992 (sc_t 2)))
 (let (($x1399 (bvsle ?x2992 n)))
 (or $x1399 $x2921)))))))
 ))
 (let (($x8488 (= ?x11964 (bvadd (_ bv1 6) (sc_t 2)))))
 (let ((?x3556 (used_gas_t x_0 w_1 x_CALLVALUE 3)))
 (let (($x3208 (= ?x3556 (+ 3 (used_gas_t x_0 w_1 x_CALLVALUE 2)))))
 (let (($x9534 (not (= ((_ extract 6 6) (bvadd (_ bv1 7) (concat (_ bv0 1) (sc_t 1)))) (_ bv0 1)))))
 (let (($x408 (exc_halt_t 1)))
 (let (($x4408 (forall ((w (_ BitVec 256)) )(let ((?x6655 (storage_t x_0 w_1 x_CALLVALUE 1 w)))
 (let ((?x6052 (storage_t x_0 w_1 x_CALLVALUE 2 w)))
 (= ?x6052 ?x6655))))
 ))
 (let (($x3335 (forall ((n (_ BitVec 6)) )(let ((?x7810 (stack_t x_0 w_1 x_CALLVALUE 1 n)))
 (let ((?x10596 (stack_t x_0 w_1 x_CALLVALUE 2 n)))
 (let (($x6459 (= ?x10596 ?x7810)))
 (or $x6459 (bvsle (bvadd (_ bv62 6) (sc_t 1)) n))))))
 ))
 (let ((?x2992 (sc_t 2)))
 (let (($x10503 (= ?x2992 (bvadd (_ bv1 6) (sc_t 1)))))
 (let ((?x3802 (used_gas_t x_0 w_1 x_CALLVALUE 2)))
 (let (($x10384 (= ?x3802 (+ 3 (used_gas_t x_0 w_1 x_CALLVALUE 1)))))
 (let (($x6470 (= (stack_t x_0 w_1 x_CALLVALUE 2 (bvadd (_ bv63 6) (sc_t 1))) (stack_t x_0 w_1 x_CALLVALUE 1 (bvadd (_ bv63 6) (sc_t 1))))))
 (let ((?x3379 (sc_t 1)))
 (let ((?x6274 (bvadd (_ bv62 6) ?x3379)))
 (let ((?x282 (stack_t x_0 w_1 x_CALLVALUE 1 ?x6274)))
 (let (($x11464 (= $x408 (or $x56 (not (= ((_ extract 6 6) (bvadd (_ bv1 7) (concat (_ bv0 1) ?x63))) (_ bv0 1)))))))
 (let (($x6155 (forall ((w (_ BitVec 256)) )(let ((?x9125 (storage_t x_0 w_1 x_CALLVALUE 0 w)))
 (let ((?x6655 (storage_t x_0 w_1 x_CALLVALUE 1 w)))
 (= ?x6655 ?x9125))))
 ))
 (let (($x10684 (forall ((n (_ BitVec 6)) )(let ((?x63 (sc_t 0)))
 (let (($x5904 (bvsle ?x63 n)))
 (let ((?x2643 (stack_t x_0 w_1 x_CALLVALUE 0 n)))
 (let ((?x7810 (stack_t x_0 w_1 x_CALLVALUE 1 n)))
 (or (= ?x7810 ?x2643) $x5904))))))
 ))
 (let (($x8894 (= ?x3379 (bvadd (_ bv1 6) ?x63))))
 (let ((?x1537 (used_gas_t x_0 w_1 x_CALLVALUE 1)))
 (let (($x11899 (= ?x1537 (+ 2 ?x7709))))
 (let (($x6379 (= (stack_t x_0 w_1 x_CALLVALUE 1 ?x63) x_CALLVALUE)))
 (let (($x6674 (not (bvsle (_ bv0 6) (bvadd (_ bv62 6) (sc_s 5))))))
 (let (($x1862 (exc_halt_s 5)))
 (let (($x1400 (or $x1862 $x6674 (not (= ((_ extract 6 6) (bvadd (_ bv1 7) (concat (_ bv0 1) (sc_s 5)))) (_ bv0 1))))))
 (let (($x5723 (forall ((w (_ BitVec 256)) )(let ((?x2982 (storage_s x_0 w_1 x_CALLVALUE 5 w)))
 (let ((?x3936 (storage_s x_0 w_1 x_CALLVALUE 6 w)))
 (= ?x3936 ?x2982))))
 ))
 (let (($x4086 (forall ((n (_ BitVec 6)) )(let ((?x4319 (sc_s 5)))
 (let ((?x3655 (bvadd (_ bv62 6) ?x4319)))
 (let (($x6198 (bvsle ?x3655 n)))
 (let ((?x749 (stack_s x_0 w_1 x_CALLVALUE 5 n)))
 (let ((?x886 (stack_s x_0 w_1 x_CALLVALUE 6 n)))
 (or (= ?x886 ?x749) $x6198)))))))
 ))
 (let (($x7092 (= (used_gas_s x_0 w_1 x_CALLVALUE 6) (+ 3 (used_gas_s x_0 w_1 x_CALLVALUE 5)))))
 (let ((?x4319 (sc_s 5)))
 (let ((?x5984 (bvadd (_ bv63 6) ?x4319)))
 (let ((?x8308 (stack_s x_0 w_1 x_CALLVALUE 5 ?x5984)))
 (let ((?x3655 (bvadd (_ bv62 6) ?x4319)))
 (let ((?x264 (stack_s x_0 w_1 x_CALLVALUE 5 ?x3655)))
 (let (($x8932 (not (bvsle (_ bv0 6) (bvadd (_ bv61 6) (sc_s 4))))))
 (let (($x276 (exc_halt_s 4)))
 (let (($x5861 (or $x276 $x8932 (not (= ((_ extract 6 6) (bvadd (_ bv1 7) (concat (_ bv0 1) (sc_s 4)))) (_ bv0 1))))))
 (let (($x9435 (forall ((w (_ BitVec 256)) )(let ((?x934 (storage_s x_0 w_1 x_CALLVALUE 4 w)))
 (let ((?x2982 (storage_s x_0 w_1 x_CALLVALUE 5 w)))
 (= ?x2982 ?x934))))
 ))
 (let (($x9729 (forall ((n (_ BitVec 6)) )(let ((?x3145 (sc_s 4)))
 (let ((?x11862 (bvadd (_ bv61 6) ?x3145)))
 (let (($x9930 (bvsle ?x11862 n)))
 (let ((?x4816 (stack_s x_0 w_1 x_CALLVALUE 4 n)))
 (let ((?x749 (stack_s x_0 w_1 x_CALLVALUE 5 n)))
 (or (= ?x749 ?x4816) $x9930)))))))
 ))
 (let ((?x5695 (used_gas_s x_0 w_1 x_CALLVALUE 5)))
 (let ((?x3145 (sc_s 4)))
 (let ((?x4151 (bvadd (_ bv63 6) ?x3145)))
 (let ((?x3958 (stack_s x_0 w_1 x_CALLVALUE 4 ?x4151)))
 (let ((?x10403 (bvadd (_ bv62 6) ?x3145)))
 (let ((?x10193 (stack_s x_0 w_1 x_CALLVALUE 4 ?x10403)))
 (let ((?x11862 (bvadd (_ bv61 6) ?x3145)))
 (let ((?x10731 (stack_s x_0 w_1 x_CALLVALUE 4 ?x11862)))
 (let (($x467 (= $x276 (or (exc_halt_s 3) (not (bvsle (_ bv0 6) (bvadd (_ bv62 6) (sc_s 3))))))))
 (let (($x10411 (forall ((w (_ BitVec 256)) )(let ((?x3103 (storage_s x_0 w_1 x_CALLVALUE 3 w)))
 (let ((?x934 (storage_s x_0 w_1 x_CALLVALUE 4 w)))
 (= ?x934 ?x3103))))
 ))
 (let (($x1620 (forall ((n (_ BitVec 6)) )(let ((?x11774 (stack_s x_0 w_1 x_CALLVALUE 3 n)))
 (let ((?x4816 (stack_s x_0 w_1 x_CALLVALUE 4 n)))
 (let ((?x4554 (sc_s 3)))
 (let ((?x7881 (bvadd (_ bv62 6) ?x4554)))
 (let (($x1229 (bvsle ?x7881 n)))
 (or $x1229 (= ?x4816 ?x11774))))))))
 ))
 (let ((?x4554 (sc_s 3)))
 (let (($x353 (= ?x3145 ?x4554)))
 (let ((?x7843 (used_gas_s x_0 w_1 x_CALLVALUE 4)))
 (let (($x2805 (= ?x7843 (+ 3 (used_gas_s x_0 w_1 x_CALLVALUE 3)))))
 (let (($x11060 (= ?x10193 (stack_s x_0 w_1 x_CALLVALUE 3 (bvadd (_ bv63 6) ?x4554)))))
 (let (($x7932 (= ?x3958 (stack_s x_0 w_1 x_CALLVALUE 3 (bvadd (_ bv62 6) ?x4554)))))
 (let (($x7873 (exc_halt_s 2)))
 (let (($x4225 (or $x7873 (not (= ((_ extract 6 6) (bvadd (_ bv1 7) (concat (_ bv0 1) (sc_s 2)))) (_ bv0 1))))))
 (let (($x8777 (exc_halt_s 3)))
 (let (($x8915 (= $x8777 $x4225)))
 (let (($x8929 (forall ((w (_ BitVec 256)) )(let ((?x12000 (storage_s x_0 w_1 x_CALLVALUE 2 w)))
 (let ((?x3103 (storage_s x_0 w_1 x_CALLVALUE 3 w)))
 (= ?x3103 ?x12000))))
 ))
 (let (($x3266 (forall ((n (_ BitVec 6)) )(let ((?x3249 (stack_s x_0 w_1 x_CALLVALUE 2 n)))
 (let ((?x11774 (stack_s x_0 w_1 x_CALLVALUE 3 n)))
 (let ((?x7378 (sc_s 2)))
 (let (($x5791 (bvsle ?x7378 n)))
 (or $x5791 (= ?x11774 ?x3249)))))))
 ))
 (let (($x2780 (= ?x4554 (bvadd (_ bv1 6) (sc_s 2)))))
 (let ((?x3872 (used_gas_s x_0 w_1 x_CALLVALUE 3)))
 (let (($x7212 (= ?x3872 (+ 2 (used_gas_s x_0 w_1 x_CALLVALUE 2)))))
 (let (($x1589 (= (stack_s x_0 w_1 x_CALLVALUE 3 (sc_s 2)) x_CALLVALUE)))
 (let (($x8295 (= $x7873 (or (exc_halt_s 1) (not (bvsle (_ bv0 6) (bvadd (_ bv62 6) (sc_s 1))))))))
 (let (($x8304 (forall ((w (_ BitVec 256)) )(let ((?x3879 (storage_s x_0 w_1 x_CALLVALUE 1 w)))
 (let ((?x12000 (storage_s x_0 w_1 x_CALLVALUE 2 w)))
 (= ?x12000 ?x3879))))
 ))
 (let (($x4843 (forall ((n (_ BitVec 6)) )(let ((?x154 (sc_s 1)))
 (let ((?x2778 (bvadd (_ bv62 6) ?x154)))
 (let (($x10951 (bvsle ?x2778 n)))
 (let ((?x5954 (stack_s x_0 w_1 x_CALLVALUE 1 n)))
 (let ((?x3249 (stack_s x_0 w_1 x_CALLVALUE 2 n)))
 (or (= ?x3249 ?x5954) $x10951)))))))
 ))
 (let ((?x154 (sc_s 1)))
 (let ((?x7378 (sc_s 2)))
 (let (($x7646 (= ?x7378 ?x154)))
 (let ((?x8357 (used_gas_s x_0 w_1 x_CALLVALUE 2)))
 (let (($x6210 (= ?x8357 (+ 3 (used_gas_s x_0 w_1 x_CALLVALUE 1)))))
 (let (($x7802 (= (stack_s x_0 w_1 x_CALLVALUE 2 (bvadd (_ bv62 6) ?x7378)) (stack_s x_0 w_1 x_CALLVALUE 1 (bvadd (_ bv63 6) ?x154)))))
 (let (($x2219 (= (stack_s x_0 w_1 x_CALLVALUE 2 (bvadd (_ bv63 6) ?x7378)) (stack_s x_0 w_1 x_CALLVALUE 1 (bvadd (_ bv62 6) ?x154)))))
 (let (($x2589 (exc_halt_s 1)))
 (let (($x10668 (= $x2589 (or $x57 (not (= ((_ extract 6 6) (bvadd (_ bv1 7) (concat (_ bv0 1) ?x72))) (_ bv0 1)))))))
 (let (($x136 (forall ((w (_ BitVec 256)) )(let ((?x3334 (storage_s x_0 w_1 x_CALLVALUE 0 w)))
 (let ((?x3879 (storage_s x_0 w_1 x_CALLVALUE 1 w)))
 (= ?x3879 ?x3334))))
 ))
 (let (($x10555 (forall ((n (_ BitVec 6)) )(let ((?x72 (sc_s 0)))
 (let (($x9529 (bvsle ?x72 n)))
 (let ((?x9596 (stack_s x_0 w_1 x_CALLVALUE 0 n)))
 (let ((?x5954 (stack_s x_0 w_1 x_CALLVALUE 1 n)))
 (or (= ?x5954 ?x9596) $x9529))))))
 ))
 (let (($x5498 (= ?x154 (bvadd (_ bv1 6) ?x72))))
 (let ((?x10386 (used_gas_s x_0 w_1 x_CALLVALUE 1)))
 (let (($x1647 (= ?x10386 (+ 3 ?x9304))))
 (let (($x292 (= (stack_s x_0 w_1 x_CALLVALUE 1 ?x72) w_1)))
 (let (($x2818 (forall ((w (_ BitVec 256)) )(let ((?x3334 (storage_s x_0 w_1 x_CALLVALUE 0 w)))
 (= ?x3334 (_ bv0 256))))
 ))
 (let (($x8022 (= ?x9304 0)))
 (let (($x11010 (not $x57)))
 (let (($x4799 (= (stack_s x_0 w_1 x_CALLVALUE 0 (_ bv0 6)) x_0)))
 (let (($x4256 (= ?x72 (_ bv1 6))))
 (and $x4256 $x4799 $x11010 $x8022 $x2818 $x292 $x1647 $x5498 $x10555 $x136 $x10668 $x2219 $x7802 $x6210 $x7646 $x4843 $x8304 $x8295 $x1589 $x7212 $x2780 $x3266 $x8929 $x8915 $x7932 $x11060 $x2805 $x353 $x1620 $x10411 $x467 (= ?x8308 ?x10731) (= (stack_s x_0 w_1 x_CALLVALUE 5 ?x11862) ?x10731) (= (stack_s x_0 w_1 x_CALLVALUE 5 ?x10403) ?x10193) (= (stack_s x_0 w_1 x_CALLVALUE 5 ?x4151) ?x3958) (= ?x5695 (+ 3 ?x7843)) (= ?x4319 (bvadd (_ bv1 6) ?x3145)) $x9729 $x9435 (= $x1862 $x5861) (= (stack_s x_0 w_1 x_CALLVALUE 6 (bvadd (_ bv63 6) ?x926)) ?x264) (= (stack_s x_0 w_1 x_CALLVALUE 6 ?x3655) ?x264) (= (stack_s x_0 w_1 x_CALLVALUE 6 ?x5984) ?x8308) $x7092 (= ?x926 (bvadd (_ bv1 6) ?x4319)) $x4086 $x5723 (= $x772 $x1400) $x6379 $x11899 $x8894 $x10684 $x6155 $x11464 (= (stack_t x_0 w_1 x_CALLVALUE 2 (bvadd (_ bv63 6) ?x2992)) ?x282) (= (stack_t x_0 w_1 x_CALLVALUE 2 ?x6274) ?x282) $x6470 $x10384 $x10503 $x3335 $x4408 (= $x9580 (or $x408 (not (bvsle (_ bv0 6) ?x6274)) $x9534)) (= (stack_t x_0 w_1 x_CALLVALUE 3 ?x2992) w_1) $x3208 $x8488 $x7047 $x6180 $x6697 (= ?x10586 ?x10733) (= (stack_t x_0 w_1 x_CALLVALUE 4 ?x2640) ?x10733) (= ?x7262 (+ 3 ?x3556)) $x7844 $x5990 $x10452 (= $x7854 (or $x3425 $x4112 $x4203)) $x10515 (= (stack_t x_0 w_1 x_CALLVALUE 5 (bvadd (_ bv59 6) ?x8961)) ?x10586) $x5358 $x7360 $x7371 $x3951 (= ?x8961 ?x1366) $x9801 $x4490 $x2353 $x73 $x1049 $x58 $x6823 $x3285 (not (and $x5889 $x2151 $x11108 $x11303))))))))))))))))))))))))))))))))))))))))))))))))))))))))))))))))))))))))))))))))))))))))))))))))))))))))))))))))))))))))))))))))))))))))))
 )
(check-sat)
(get-proof)
